(set-info :source |printed by MathSAT|)
(declare-fun |main::tmp_var_1_int@2| () (_ BitVec 32))
(declare-fun |cast::i@2| () (_ BitVec 32))
(declare-fun |__ADDRESS_OF_cast::y@| () (_ BitVec 32))
(declare-fun |cast::y$d@2| () (_ FloatingPoint 11 53))
(declare-fun |cast::y$d@3| () (_ FloatingPoint 11 53))
(declare-fun |cast::y$parts$low@3| () (_ BitVec 32))
(declare-fun |cast::y$d@4| () (_ FloatingPoint 11 53))
(declare-fun |cast::y$parts$high@3| () (_ BitVec 32))
(declare-fun |cast::__retval__@2| () (_ FloatingPoint 11 53))
(declare-fun |main::r@4| () (_ FloatingPoint 11 53))
(assert (let ((.def_52 ((_ to_fp 11 53) RNE |main::tmp_var_1_int@2|)))(let ((.def_109 (fp.eq .def_52 |main::r@4|)))(let ((.def_110 (not .def_109)))(let ((.def_107 (= |cast::__retval__@2| |main::r@4|)))(let ((.def_47 (= |cast::y$d@4| |cast::__retval__@2|)))(let ((.def_43 (= |cast::y$parts$high@3| (_ bv0 32))))(let ((.def_36 (fp.as_ieee_bv |cast::y$d@3|)))(let ((.def_37 ((_ extract 31 0) .def_36)))(let ((.def_38 (concat (_ bv0 32) .def_37)))(let ((.def_39 ((_ to_fp 11 53) .def_38)))(let ((.def_41 (= .def_39 |cast::y$d@4|)))(let ((.def_44 (and .def_41 .def_43)))(let ((.def_33 (= |cast::i@2| |cast::y$parts$low@3|)))(let ((.def_26 (fp.as_ieee_bv |cast::y$d@2|)))(let ((.def_27 ((_ extract 63 32) .def_26)))(let ((.def_28 (concat .def_27 |cast::i@2|)))(let ((.def_29 ((_ to_fp 11 53) .def_28)))(let ((.def_31 (= .def_29 |cast::y$d@3|)))(let ((.def_34 (and .def_31 .def_33)))(let ((.def_16 (bvurem |__ADDRESS_OF_cast::y@| (_ bv4 32))))(let ((.def_17 (= .def_16 (_ bv0 32))))(let ((.def_15 (bvslt (_ bv0 32) |__ADDRESS_OF_cast::y@|)))(let ((.def_21 (and .def_15 .def_17)))(let ((.def_19 (bvadd (_ bv8 32) |__ADDRESS_OF_cast::y@|)))(let ((.def_20 (bvslt (_ bv0 32) .def_19)))(let ((.def_22 (and .def_20 .def_21)))(let ((.def_13 (= |main::tmp_var_1_int@2| |cast::i@2|)))(let ((.def_23 (and .def_13 .def_22)))(let ((.def_35 (and .def_23 .def_34)))(let ((.def_45 (and .def_35 .def_44)))(let ((.def_48 (and .def_45 .def_47)))(let ((.def_108 (and .def_48 .def_107)))(let ((.def_112 (and .def_108 .def_110))).def_112))))))))))))))))))))))))))))))))))